! Solving for graph /home/truongxuanhieu/Gurobi-for-MinSpanLabeling/benchmarks/abp/O-impcol_d.mtx.rnd
! Target value is set to 180
! Lower bound is set to 181
! Upper bound is set to 638
! Time limit is set to 1800
! Vertices mode is set to Has hole
Set parameter WLSAccessID
Set parameter WLSSecret
Set parameter LicenseID to value 2663665
Academic license 2663665 - for non-commercial use only - registered to tu___@vnu.edu.vn
Set parameter OutputFlag to value 1
Set parameter TimeLimit to value 1800
Gurobi Optimizer version 13.0.2 build v13.0.2rc1 (linux64 - "Debian GNU/Linux 12 (bookworm)")

CPU model: AMD EPYC 7B12, instruction set [SSE2|AVX|AVX2]
Thread count: 4 physical cores, 8 logical processors, using up to 8 threads

Non-default parameters:
TimeLimit  1800

Academic license 2663665 - for non-commercial use only - registered to tu___@vnu.edu.vn
Optimize a model with 2960 rows, 2960 columns and 5919 nonzeros (Min)
Model fingerprint: 0xe5ab6d3d
Model has 1 linear objective coefficients
Model has 1267 simple general constraints
  1267 ABS
Variable types: 0 continuous, 2960 integer (0 binary)
Coefficient statistics:
  Matrix range     [1e+00, 1e+00]
  Objective range  [1e+00, 1e+00]
  Bounds range     [1e+00, 6e+02]
  RHS range        [2e+02, 3e+02]

Presolve added 0 rows and 1267 columns
Presolve removed 1 rows and 0 columns
Presolve time: 0.02s
Presolved: 2959 rows, 4227 columns, 9719 nonzeros
Presolved model has 1267 SOS constraint(s)
Variable types: 0 continuous, 4227 integer (0 binary)

Root relaxation: objective 1.810000e+02, 1198 iterations, 0.01 seconds (0.00 work units)

    Nodes    |    Current Node    |     Objective Bounds      |     Work
 Expl Unexpl |  Obj  Depth IntInf | Incumbent    BestBd   Gap | It/Node Time

     0     0  181.00000    0  921          -  181.00000      -     -    0s
     0     0  181.00000    0  921          -  181.00000      -     -    0s
     0     2  181.00000    0  921          -  181.00000      -     -    0s
 19498 12760  541.00000   52  842          -  361.00000      -   4.1    5s
 41682 26889  541.00000  143  722          -  361.00000      -   3.9   10s
 62437 40561  541.00000  102  760          -  361.00000      -   3.8   15s
 88151 57264  541.00000   70  822          -  361.00000      -   3.7   20s
 107148 69363  541.00000  313  313          -  361.00000      -   3.7   25s
 132714 85847  541.00000  232  500          -  361.00000      -   3.7   30s
 148298 96254  541.00000  202  592          -  361.00000      -   3.6   35s
 173727 112735 infeasible   40               -  361.00000      -   3.6   40s
 200119 130230 infeasible  320               -  361.00000      -   3.6   45s
 224044 146389  361.00000   68  799          -  361.00000      -   3.6   50s
*225291  1742             472     541.0000000  361.00000  33.3%   3.6   50s
 250736    29  361.00000   69  712  541.00000  361.00000  33.3%   3.4   55s

Explored 251889 nodes (854800 simplex iterations) in 55.20 seconds (43.48 work units)
Thread count was 8 (of 8 available processors)

Solution count 1: 541 

Optimal solution found (tolerance 1.00e-04)
Best objective 5.410000000000e+02, best bound 5.410000000000e+02, gap 0.0000%
! --------------------------------------------------------
! Best span = 541
! Labeling: 1 541 1 1 1 361 361 181 361 181 361 181 1 181 541 181 1 1 1 181 181 361 1 1 1 181 181 181 541 361 541 181 1 541 181 361 541 361 541 1 361 1 1 1 1 1 181 361 361 541 361 1 181 181 181 541 541 181 181 541 361 541 1 181 361 541 541 541 361 361 541 1 181 361 1 1 541 541 1 1 1 1 1 541 541 1 361 181 1 181 541 361 1 181 361 181 1 361 181 541 541 1 181 361 1 361 181 361 181 361 181 541 1 1 1 1 361 181 1 361 361 541 361 181 541 361 541 181 361 1 181 181 1 361 361 541 541 1 541 1 1 181 361 181 181 181 361 541 541 541 361 361 181 541 181 361 361 1 181 361 181 1 181 361 541 1 181 1 1 181 181 181 181 181 361 361 1 541 361 1 181 1 361 361 181 361 541 541 181 361 361 541 541 361 541 1 1 181 541 541 361 1 181 361 181 541 181 541 181 1 1 1 181 361 181 1 181 181 361 181 361 1 541 361 361 1 541 181 541 181 181 541 361 181 361 361 1 1 541 181 361 541 361 361 181 361 1 181 181 181 181 181 181 1 1 181 361 181 361 361 1 361 361 361 541 181 361 181 541 541 181 1 1 541 361 181 181 1 541 181 361 181 361 181 1 361 1 1 361 181 361 1 181 181 541 1 1 361 361 181 1 1 1 1 181 181 361 181 1 361 1 1 1 1 181 181 541 1 1 361 181 181 541 181 541 361 361 541 181 1 1 1 361 541 361 361 1 541 181 541 361 361 361 181 541 181 541 361 541 181 361 361 361 1 1 541 1 181 181 1 1 361 181 361 361 181 181 1 541 1 181 181 541 361 1 181 361 541 361 181 1 1 181 361 181 361 541 181 361 361 541 181 1 1 361 181 1 541 361 541 1 541 1 1 181 541 1 1 361 181 181 361 1 1 181 181 1 541 1 1 181 1 1 361 1 
! --------------------------------------------------------
